p cnf 271 1297
105 113 136 0
118 132 243 0
123 153 0
78 102 222 0
46 110 0
86 99 116 119 0
71 77 175 178 0
62 84 134 161 183 0
106 124 185 189 0
133 160 0
30 139 253 0
145 203 0
66 75 120 149 0
125 151 155 0
142 156 158 0
41 88 89 95 104 0
70 83 0
128 152 166 167 0
58 60 164 0
57 100 140 0
55 56 93 0
50 52 53 67 0
45 47 48 157 0
38 42 90 96 0
68 72 80 0
34 35 61 114 0
31 107 115 127 0
27 29 0
26 147 0
22 24 51 0
20 108 0
40 87 0
15 17 85 0
65 69 82 112 150 0
14 32 64 0
13 130 137 0
11 12 121 143 0
19 122 0
10 44 49 154 245 0
103 168 0
81 170 171 173 0
63 74 0
174 176 179 0
135 162 181 182 0
141 184 186 188 190 0
28 191 193 266 0
196 197 199 200 202 0
23 25 109 204 206 208 0
21 210 0
-110 -211 0
-99 -110 0
-110 -161 0
-110 -185 0
-110 -160 0
-99 -211 0
-161 -211 0
-185 -211 0
-160 -211 0
-99 -161 0
-99 -185 0
-99 -160 0
-161 -185 0
-160 -161 0
-160 -185 0
-70 -212 0
-152 -212 0
-57 -212 0
-212 -213 0
-212 -214 0
-70 -152 0
-57 -70 0
-70 -213 0
-70 -214 0
-57 -152 0
-152 -213 0
-152 -214 0
-57 -213 0
-57 -214 0
-213 -214 0
-53 -216 0
-53 -217 0
-53 -91 0
-53 -80 0
-53 -115 0
-216 -217 0
-91 -216 0
-80 -216 0
-115 -216 0
-91 -217 0
-80 -217 0
-115 -217 0
-80 -91 0
-91 -115 0
-80 -115 0
-85 -87 0
-64 -87 0
-87 -218 0
-87 -130 0
-87 -220 0
-64 -85 0
-85 -218 0
-85 -130 0
-85 -220 0
-64 -218 0
-64 -130 0
-64 -220 0
-130 -218 0
-218 -220 0
-130 -220 0
-131 -221 0
-131 -154 0
-131 -223 0
-39 -131 0
-74 -131 0
-154 -221 0
-221 -223 0
-39 -221 0
-74 -221 0
-154 -223 0
-39 -154 0
-74 -154 0
-39 -223 0
-74 -223 0
-39 -74 0
-37 -174 0
-37 -184 0
-37 -196 0
-37 -225 0
-37 -210 0
-174 -184 0
-174 -196 0
-174 -225 0
-174 -210 0
-184 -196 0
-184 -225 0
-184 -210 0
-196 -225 0
-196 -210 0
-210 -225 0
-110 -212 0
-53 -110 0
-87 -110 0
-110 -131 0
-37 -110 0
-53 -212 0
-87 -212 0
-131 -212 0
-37 -212 0
-53 -87 0
-53 -131 0
-37 -53 0
-87 -131 0
-37 -87 0
-37 -131 0
-70 -211 0
-211 -216 0
-85 -211 0
-211 -221 0
-174 -211 0
-70 -216 0
-70 -85 0
-70 -221 0
-70 -174 0
-85 -216 0
-216 -221 0
-174 -216 0
-85 -221 0
-85 -174 0
-174 -221 0
-99 -152 0
-99 -217 0
-64 -99 0
-99 -154 0
-99 -184 0
-152 -217 0
-64 -152 0
-152 -154 0
-152 -184 0
-64 -217 0
-154 -217 0
-184 -217 0
-64 -154 0
-64 -184 0
-154 -184 0
-57 -161 0
-91 -161 0
-161 -218 0
-161 -223 0
-161 -196 0
-57 -91 0
-57 -218 0
-57 -223 0
-57 -196 0
-91 -218 0
-91 -223 0
-91 -196 0
-218 -223 0
-196 -218 0
-196 -223 0
-185 -213 0
-80 -185 0
-130 -185 0
-39 -185 0
-185 -225 0
-80 -213 0
-130 -213 0
-39 -213 0
-213 -225 0
-80 -130 0
-39 -80 0
-80 -225 0
-39 -130 0
-130 -225 0
-39 -225 0
-160 -214 0
-115 -160 0
-160 -220 0
-74 -160 0
-160 -210 0
-115 -214 0
-214 -220 0
-74 -214 0
-210 -214 0
-115 -220 0
-74 -115 0
-115 -210 0
-74 -220 0
-210 -220 0
-74 -210 0
-105 -243 0
-59 -105 0
-101 -105 0
-78 -105 0
-105 -226 0
-59 -243 0
-101 -243 0
-78 -243 0
-226 -243 0
-59 -101 0
-59 -78 0
-59 -226 0
-78 -101 0
-101 -226 0
-78 -226 0
-139 -227 0
-66 -139 0
-139 -228 0
-104 -139 0
-139 -229 0
-66 -227 0
-227 -228 0
-104 -227 0
-227 -229 0
-66 -228 0
-66 -104 0
-66 -229 0
-104 -228 0
-228 -229 0
-104 -229 0
-33 -230 0
-128 -230 0
-164 -230 0
-93 -230 0
-230 -231 0
-33 -128 0
-33 -164 0
-33 -93 0
-33 -231 0
-128 -164 0
-93 -128 0
-128 -231 0
-93 -164 0
-164 -231 0
-93 -231 0
-45 -67 0
-67 -169 0
-42 -67 0
-61 -67 0
-67 -107 0
-45 -169 0
-42 -45 0
-45 -61 0
-45 -107 0
-42 -169 0
-61 -169 0
-107 -169 0
-42 -61 0
-42 -107 0
-61 -107 0
-29 -232 0
-146 -232 0
-26 -232 0
-126 -232 0
-159 -232 0
-29 -146 0
-26 -29 0
-29 -126 0
-29 -159 0
-26 -146 0
-126 -146 0
-146 -159 0
-26 -126 0
-26 -159 0
-126 -159 0
-98 -162 0
-98 -186 0
-98 -191 0
-25 -98 0
-21 -98 0
-162 -186 0
-162 -191 0
-25 -162 0
-21 -162 0
-186 -191 0
-25 -186 0
-21 -186 0
-25 -191 0
-21 -191 0
-21 -25 0
-105 -139 0
-105 -230 0
-67 -105 0
-105 -232 0
-98 -105 0
-139 -230 0
-67 -139 0
-139 -232 0
-98 -139 0
-67 -230 0
-230 -232 0
-98 -230 0
-67 -232 0
-67 -98 0
-98 -232 0
-227 -243 0
-33 -243 0
-45 -243 0
-29 -243 0
-162 -243 0
-33 -227 0
-45 -227 0
-29 -227 0
-162 -227 0
-33 -45 0
-29 -33 0
-33 -162 0
-29 -45 0
-45 -162 0
-29 -162 0
-59 -66 0
-59 -128 0
-59 -169 0
-59 -146 0
-59 -186 0
-66 -128 0
-66 -169 0
-66 -146 0
-66 -186 0
-128 -169 0
-128 -146 0
-128 -186 0
-146 -169 0
-169 -186 0
-146 -186 0
-101 -228 0
-101 -164 0
-42 -101 0
-26 -101 0
-101 -191 0
-164 -228 0
-42 -228 0
-26 -228 0
-191 -228 0
-42 -164 0
-26 -164 0
-164 -191 0
-26 -42 0
-42 -191 0
-26 -191 0
-78 -104 0
-78 -93 0
-61 -78 0
-78 -126 0
-25 -78 0
-93 -104 0
-61 -104 0
-104 -126 0
-25 -104 0
-61 -93 0
-93 -126 0
-25 -93 0
-61 -126 0
-25 -61 0
-25 -126 0
-226 -229 0
-226 -231 0
-107 -226 0
-159 -226 0
-21 -226 0
-229 -231 0
-107 -229 0
-159 -229 0
-21 -229 0
-107 -231 0
-159 -231 0
-21 -231 0
-107 -159 0
-21 -107 0
-21 -159 0
-113 -234 0
-113 -118 0
-113 -235 0
-113 -249 0
-118 -234 0
-234 -235 0
-234 -249 0
-118 -235 0
-118 -249 0
-235 -249 0
-203 -253 0
-198 -253 0
-205 -253 0
-236 -253 0
-198 -203 0
-203 -205 0
-203 -236 0
-198 -205 0
-198 -236 0
-205 -236 0
-83 -237 0
-237 -238 0
-60 -237 0
-237 -239 0
-83 -238 0
-60 -83 0
-83 -239 0
-60 -238 0
-238 -239 0
-60 -239 0
-52 -240 0
-48 -52 0
-52 -96 0
-52 -127 0
-48 -240 0
-96 -240 0
-127 -240 0
-48 -96 0
-48 -127 0
-96 -127 0
-17 -40 0
-40 -69 0
-40 -241 0
-40 -244 0
-17 -69 0
-17 -241 0
-17 -244 0
-69 -241 0
-69 -244 0
-241 -244 0
-113 -253 0
-113 -237 0
-52 -113 0
-40 -113 0
-237 -253 0
-52 -253 0
-40 -253 0
-52 -237 0
-40 -237 0
-40 -52 0
-203 -234 0
-83 -234 0
-234 -240 0
-17 -234 0
-83 -203 0
-203 -240 0
-17 -203 0
-83 -240 0
-17 -83 0
-17 -240 0
-118 -198 0
-118 -238 0
-48 -118 0
-69 -118 0
-198 -238 0
-48 -198 0
-69 -198 0
-48 -238 0
-69 -238 0
-48 -69 0
-205 -235 0
-60 -235 0
-96 -235 0
-235 -241 0
-60 -205 0
-96 -205 0
-205 -241 0
-60 -96 0
-60 -241 0
-96 -241 0
-236 -249 0
-239 -249 0
-127 -249 0
-244 -249 0
-236 -239 0
-127 -236 0
-236 -244 0
-127 -239 0
-239 -244 0
-127 -244 0
-136 -138 0
-123 -136 0
-136 -246 0
-102 -136 0
-123 -138 0
-138 -246 0
-102 -138 0
-123 -246 0
-102 -123 0
-102 -246 0
-16 -167 0
-16 -140 0
-16 -144 0
-16 -56 0
-140 -167 0
-144 -167 0
-56 -167 0
-140 -144 0
-56 -140 0
-56 -144 0
-180 -194 0
-51 -180 0
-108 -180 0
-180 -247 0
-51 -194 0
-108 -194 0
-194 -247 0
-51 -108 0
-51 -247 0
-108 -247 0
-49 -248 0
-248 -250 0
-248 -251 0
-170 -248 0
-49 -250 0
-49 -251 0
-49 -170 0
-250 -251 0
-170 -250 0
-170 -251 0
-141 -252 0
-197 -252 0
-252 -254 0
-204 -252 0
-141 -197 0
-141 -254 0
-141 -204 0
-197 -254 0
-197 -204 0
-204 -254 0
-16 -136 0
-136 -180 0
-136 -248 0
-136 -252 0
-16 -180 0
-16 -248 0
-16 -252 0
-180 -248 0
-180 -252 0
-248 -252 0
-138 -167 0
-138 -194 0
-49 -138 0
-138 -141 0
-167 -194 0
-49 -167 0
-141 -167 0
-49 -194 0
-141 -194 0
-49 -141 0
-123 -140 0
-51 -123 0
-123 -250 0
-123 -197 0
-51 -140 0
-140 -250 0
-140 -197 0
-51 -250 0
-51 -197 0
-197 -250 0
-144 -246 0
-108 -246 0
-246 -251 0
-246 -254 0
-108 -144 0
-144 -251 0
-144 -254 0
-108 -251 0
-108 -254 0
-251 -254 0
-56 -102 0
-102 -247 0
-102 -170 0
-102 -204 0
-56 -247 0
-56 -170 0
-56 -204 0
-170 -247 0
-204 -247 0
-170 -204 0
-116 -255 0
-175 -255 0
-84 -255 0
-189 -255 0
-177 -255 0
-116 -175 0
-84 -116 0
-116 -189 0
-116 -177 0
-84 -175 0
-175 -189 0
-175 -177 0
-84 -189 0
-84 -177 0
-177 -189 0
-75 -201 0
-201 -207 0
-151 -201 0
-156 -201 0
-88 -201 0
-75 -207 0
-75 -151 0
-75 -156 0
-75 -88 0
-151 -207 0
-156 -207 0
-88 -207 0
-151 -156 0
-88 -151 0
-88 -156 0
-47 -224 0
-38 -47 0
-47 -257 0
-47 -72 0
-35 -47 0
-38 -224 0
-224 -257 0
-72 -224 0
-35 -224 0
-38 -257 0
-38 -72 0
-35 -38 0
-72 -257 0
-35 -257 0
-35 -72 0
-14 -150 0
-150 -258 0
-150 -259 0
-137 -150 0
-12 -150 0
-14 -258 0
-14 -259 0
-14 -137 0
-12 -14 0
-258 -259 0
-137 -258 0
-12 -258 0
-137 -259 0
-12 -259 0
-12 -137 0
-122 -245 0
-103 -122 0
-122 -260 0
-122 -261 0
-122 -171 0
-103 -245 0
-245 -260 0
-245 -261 0
-171 -245 0
-103 -260 0
-103 -261 0
-103 -171 0
-260 -261 0
-171 -260 0
-171 -261 0
-181 -188 0
-28 -181 0
-181 -199 0
-148 -181 0
-23 -181 0
-28 -188 0
-188 -199 0
-148 -188 0
-23 -188 0
-28 -199 0
-28 -148 0
-23 -28 0
-148 -199 0
-23 -199 0
-23 -148 0
-201 -255 0
-47 -255 0
-150 -255 0
-122 -255 0
-181 -255 0
-47 -201 0
-150 -201 0
-122 -201 0
-181 -201 0
-47 -150 0
-47 -122 0
-47 -181 0
-122 -150 0
-150 -181 0
-122 -181 0
-75 -116 0
-116 -224 0
-14 -116 0
-116 -245 0
-116 -188 0
-75 -224 0
-14 -75 0
-75 -245 0
-75 -188 0
-14 -224 0
-224 -245 0
-188 -224 0
-14 -245 0
-14 -188 0
-188 -245 0
-175 -207 0
-38 -175 0
-175 -258 0
-103 -175 0
-28 -175 0
-38 -207 0
-207 -258 0
-103 -207 0
-28 -207 0
-38 -258 0
-38 -103 0
-28 -38 0
-103 -258 0
-28 -258 0
-28 -103 0
-84 -151 0
-84 -257 0
-84 -259 0
-84 -260 0
-84 -199 0
-151 -257 0
-151 -259 0
-151 -260 0
-151 -199 0
-257 -259 0
-257 -260 0
-199 -257 0
-259 -260 0
-199 -259 0
-199 -260 0
-156 -189 0
-72 -189 0
-137 -189 0
-189 -261 0
-148 -189 0
-72 -156 0
-137 -156 0
-156 -261 0
-148 -156 0
-72 -137 0
-72 -261 0
-72 -148 0
-137 -261 0
-137 -148 0
-148 -261 0
-88 -177 0
-35 -177 0
-12 -177 0
-171 -177 0
-23 -177 0
-35 -88 0
-12 -88 0
-88 -171 0
-23 -88 0
-12 -35 0
-35 -171 0
-23 -35 0
-12 -171 0
-12 -23 0
-23 -171 0
-46 -172 0
-46 -119 0
-46 -62 0
-46 -106 0
-46 -233 0
-119 -172 0
-62 -172 0
-106 -172 0
-172 -233 0
-62 -119 0
-106 -119 0
-119 -233 0
-62 -106 0
-62 -233 0
-106 -233 0
-30 -145 0
-30 -120 0
-30 -125 0
-30 -158 0
-30 -95 0
-120 -145 0
-125 -145 0
-145 -158 0
-95 -145 0
-120 -125 0
-120 -158 0
-95 -120 0
-125 -158 0
-95 -125 0
-95 -158 0
-50 -111 0
-50 -262 0
-50 -263 0
-50 -68 0
-34 -50 0
-111 -262 0
-111 -263 0
-68 -111 0
-34 -111 0
-262 -263 0
-68 -262 0
-34 -262 0
-68 -263 0
-34 -263 0
-34 -68 0
-163 -187 0
-163 -264 0
-24 -163 0
-20 -163 0
-163 -265 0
-187 -264 0
-24 -187 0
-20 -187 0
-187 -265 0
-24 -264 0
-20 -264 0
-264 -265 0
-20 -24 0
-24 -265 0
-20 -265 0
-54 -215 0
-10 -215 0
-215 -256 0
-92 -215 0
-81 -215 0
-10 -54 0
-54 -256 0
-54 -92 0
-54 -81 0
-10 -256 0
-10 -92 0
-10 -81 0
-92 -256 0
-81 -256 0
-81 -92 0
-117 -176 0
-117 -190 0
-117 -200 0
-76 -117 0
-117 -206 0
-176 -190 0
-176 -200 0
-76 -176 0
-176 -206 0
-190 -200 0
-76 -190 0
-190 -206 0
-76 -200 0
-200 -206 0
-76 -206 0
-30 -46 0
-46 -50 0
-46 -163 0
-46 -215 0
-46 -117 0
-30 -50 0
-30 -163 0
-30 -215 0
-30 -117 0
-50 -163 0
-50 -215 0
-50 -117 0
-163 -215 0
-117 -163 0
-117 -215 0
-145 -172 0
-111 -172 0
-172 -187 0
-54 -172 0
-172 -176 0
-111 -145 0
-145 -187 0
-54 -145 0
-145 -176 0
-111 -187 0
-54 -111 0
-111 -176 0
-54 -187 0
-176 -187 0
-54 -176 0
-119 -120 0
-119 -262 0
-119 -264 0
-10 -119 0
-119 -190 0
-120 -262 0
-120 -264 0
-10 -120 0
-120 -190 0
-262 -264 0
-10 -262 0
-190 -262 0
-10 -264 0
-190 -264 0
-10 -190 0
-62 -125 0
-62 -263 0
-24 -62 0
-62 -256 0
-62 -200 0
-125 -263 0
-24 -125 0
-125 -256 0
-125 -200 0
-24 -263 0
-256 -263 0
-200 -263 0
-24 -256 0
-24 -200 0
-200 -256 0
-106 -158 0
-68 -106 0
-20 -106 0
-92 -106 0
-76 -106 0
-68 -158 0
-20 -158 0
-92 -158 0
-76 -158 0
-20 -68 0
-68 -92 0
-68 -76 0
-20 -92 0
-20 -76 0
-76 -92 0
-95 -233 0
-34 -233 0
-233 -265 0
-81 -233 0
-206 -233 0
-34 -95 0
-95 -265 0
-81 -95 0
-95 -206 0
-34 -265 0
-34 -81 0
-34 -206 0
-81 -265 0
-206 -265 0
-81 -206 0
-86 -97 0
-77 -97 0
-97 -134 0
-97 -267 0
-97 -133 0
-77 -86 0
-86 -134 0
-86 -267 0
-86 -133 0
-77 -134 0
-77 -267 0
-77 -133 0
-134 -267 0
-133 -134 0
-133 -267 0
-149 -268 0
-209 -268 0
-155 -268 0
-41 -268 0
-18 -268 0
-149 -209 0
-149 -155 0
-41 -149 0
-18 -149 0
-155 -209 0
-41 -209 0
-18 -209 0
-41 -155 0
-18 -155 0
-18 -41 0
-166 -242 0
-58 -242 0
-100 -242 0
-55 -242 0
-79 -242 0
-58 -166 0
-100 -166 0
-55 -166 0
-79 -166 0
-58 -100 0
-55 -58 0
-58 -79 0
-55 -100 0
-79 -100 0
-55 -79 0
-157 -269 0
-90 -157 0
-157 -270 0
-114 -157 0
-31 -157 0
-90 -269 0
-269 -270 0
-114 -269 0
-31 -269 0
-90 -270 0
-90 -114 0
-31 -90 0
-114 -270 0
-31 -270 0
-31 -114 0
-32 -112 0
-112 -129 0
-112 -165 0
-11 -112 0
-94 -112 0
-32 -129 0
-32 -165 0
-11 -32 0
-32 -94 0
-129 -165 0
-11 -129 0
-94 -129 0
-11 -165 0
-94 -165 0
-11 -94 0
-19 -44 0
-19 -168 0
-19 -43 0
-19 -173 0
-19 -63 0
-44 -168 0
-43 -44 0
-44 -173 0
-44 -63 0
-43 -168 0
-168 -173 0
-63 -168 0
-43 -173 0
-43 -63 0
-63 -173 0
-97 -268 0
-97 -242 0
-97 -157 0
-97 -112 0
-19 -97 0
-242 -268 0
-157 -268 0
-112 -268 0
-19 -268 0
-157 -242 0
-112 -242 0
-19 -242 0
-112 -157 0
-19 -157 0
-19 -112 0
-86 -149 0
-86 -166 0
-86 -269 0
-32 -86 0
-44 -86 0
-149 -166 0
-149 -269 0
-32 -149 0
-44 -149 0
-166 -269 0
-32 -166 0
-44 -166 0
-32 -269 0
-44 -269 0
-32 -44 0
-77 -209 0
-58 -77 0
-77 -90 0
-77 -129 0
-77 -168 0
-58 -209 0
-90 -209 0
-129 -209 0
-168 -209 0
-58 -90 0
-58 -129 0
-58 -168 0
-90 -129 0
-90 -168 0
-129 -168 0
-134 -155 0
-100 -134 0
-134 -270 0
-134 -165 0
-43 -134 0
-100 -155 0
-155 -270 0
-155 -165 0
-43 -155 0
-100 -270 0
-100 -165 0
-43 -100 0
-165 -270 0
-43 -270 0
-43 -165 0
-41 -267 0
-55 -267 0
-114 -267 0
-11 -267 0
-173 -267 0
-41 -55 0
-41 -114 0
-11 -41 0
-41 -173 0
-55 -114 0
-11 -55 0
-55 -173 0
-11 -114 0
-114 -173 0
-11 -173 0
-18 -133 0
-79 -133 0
-31 -133 0
-94 -133 0
-63 -133 0
-18 -79 0
-18 -31 0
-18 -94 0
-18 -63 0
-31 -79 0
-79 -94 0
-63 -79 0
-31 -94 0
-31 -63 0
-63 -94 0
-178 -271 0
-124 -271 0
-192 -271 0
-124 -178 0
-178 -192 0
-124 -192 0
-8 -9 0
-9 -142 0
-9 -89 0
-8 -142 0
-8 -89 0
-89 -142 0
-7 -82 0
-13 -82 0
-82 -121 0
-7 -13 0
-7 -121 0
-13 -121 0
-135 -266 0
-6 -135 0
-135 -208 0
-6 -266 0
-208 -266 0
-6 -208 0
-9 -271 0
-82 -271 0
-135 -271 0
-9 -82 0
-9 -135 0
-82 -135 0
-8 -178 0
-7 -178 0
-178 -266 0
-7 -8 0
-8 -266 0
-7 -266 0
-124 -142 0
-13 -124 0
-6 -124 0
-13 -142 0
-6 -142 0
-6 -13 0
-89 -192 0
-121 -192 0
-192 -208 0
-89 -121 0
-89 -208 0
-121 -208 0
-132 -219 0
-5 -219 0
-153 -219 0
-219 -222 0
-5 -132 0
-132 -153 0
-132 -222 0
-5 -153 0
-5 -222 0
-153 -222 0
-36 -73 0
-71 -73 0
-73 -183 0
-73 -195 0
-36 -71 0
-36 -183 0
-36 -195 0
-71 -183 0
-71 -195 0
-183 -195 0
-4 -27 0
-4 -147 0
-4 -22 0
-3 -4 0
-27 -147 0
-22 -27 0
-3 -27 0
-22 -147 0
-3 -147 0
-3 -22 0
-15 -65 0
-2 -15 0
-1 -15 0
-15 -143 0
-2 -65 0
-1 -65 0
-65 -143 0
-1 -2 0
-2 -143 0
-1 -143 0
-179 -182 0
-179 -193 0
-179 -202 0
-109 -179 0
-182 -193 0
-182 -202 0
-109 -182 0
-193 -202 0
-109 -193 0
-109 -202 0
-73 -219 0
-4 -219 0
-15 -219 0
-179 -219 0
-4 -73 0
-15 -73 0
-73 -179 0
-4 -15 0
-4 -179 0
-15 -179 0
-36 -132 0
-27 -132 0
-65 -132 0
-132 -182 0
-27 -36 0
-36 -65 0
-36 -182 0
-27 -65 0
-27 -182 0
-65 -182 0
-5 -71 0
-5 -147 0
-2 -5 0
-5 -193 0
-71 -147 0
-2 -71 0
-71 -193 0
-2 -147 0
-147 -193 0
-2 -193 0
-153 -183 0
-22 -153 0
-1 -153 0
-153 -202 0
-22 -183 0
-1 -183 0
-183 -202 0
-1 -22 0
-22 -202 0
-1 -202 0
-195 -222 0
-3 -222 0
-143 -222 0
-109 -222 0
-3 -195 0
-143 -195 0
-109 -195 0
-3 -143 0
-3 -109 0
-109 -143 0
